c File: instances/16_0.35_1.col
c
c Description: Random graph of size 16 vertices and P(0.35) of edges between any two vertices.
p col 16 120
e 1 2
e 1 12
e 1 13
e 2 6
e 2 13
e 2 16
e 3 5
e 3 6
e 3 10
e 3 11
e 3 15
e 4 5
e 4 8
e 4 9
e 4 14
e 4 15
e 4 16
e 5 6
e 5 10
e 5 12
e 5 14
e 6 8
e 6 13
e 6 15
e 6 16
e 7 11
e 7 16
e 8 9
e 8 11
e 8 12
e 8 14
e 9 11
e 9 14
e 10 12
e 10 13
e 10 14
e 10 15
e 10 16
e 11 12
e 12 16
e 13 14
e 15 16